SECTION Graph
Nodes 110
Edges 109

E 1 27 309
E 1 49 296
E 1 73 295
E 2 28 292
E 3 46 297
E 3 65 290
E 3 77 295
E 3 111 192
E 4 76 307
E 4 153 206
E 5 15 304
E 5 29 303
E 5 239 193
E 6 29 288
E 6 66 300
E 6 121 201
E 7 17 294
E 7 76 301
E 8 183 198
E 9 28 302
E 10 49 311
E 11 287 193
E 12 70 298
E 13 36 301
E 13 57 299
E 14 121 206
E 14 271 202
E 15 53 294
E 16 44 293
E 17 65 300
E 18 39 297
E 18 72 294
E 18 262 212
E 19 73 293
E 20 29 294
E 21 271 202
E 22 54 311
E 23 67 299
E 24 122 196
E 25 217 203
E 26 267 199
E 27 34 306
E 27 38 298
E 27 80 298
E 28 49 297
E 29 36 305
E 29 50 297
E 29 209 198
E 30 37 291
E 30 46 298
E 31 39 295
E 31 52 296
E 31 57 299
E 31 67 300
E 31 82 193
E 32 73 299
E 33 137 202
E 34 52 296
E 35 110 210
E 36 42 305
E 36 122 185
E 36 136 197
E 37 137 194
E 37 165 203
E 38 61 304
E 38 143 192
E 38 267 200
E 40 68 298
E 41 72 303
E 41 74 305
E 43 51 306
E 44 208 189
E 44 287 193
E 45 156 197
E 45 205 199
E 47 267 197
E 48 111 192
E 48 294 198
E 49 316 195
E 50 182 196
E 51 59 302
E 52 76 302
E 52 187 201
E 52 286 197
E 53 134 191
E 54 294 205
E 55 185 196
E 56 305 203
E 58 187 194
E 59 143 200
E 59 217 188
E 60 180 194
E 62 76 308
E 63 136 199
E 63 208 190
E 64 82 197
E 68 153 195
E 69 156 196
E 69 165 200
E 70 134 193
E 71 316 204
E 73 180 194
E 75 209 202
E 78 267 202
E 79 262 198
E 110 205 99
E 182 183 96
E 185 239 91
E 286 305 95
END
SECTION Terminals
T 1
T 2
T 3
T 4
T 5
T 6
T 7
T 8
T 9
T 10
T 11
T 12
T 13
T 14
T 15
T 16
T 17
T 18
T 19
T 20
T 21
T 22
T 23
T 24
T 25
T 26
T 27
T 28
T 29
T 30
T 31
T 32
T 33
T 34
T 35
T 36
T 37
T 38
T 39
T 40
T 41
T 42
T 43
T 44
T 45
T 46
T 47
T 48
T 49
T 50
T 51
T 52
T 53
T 54
T 55
T 56
T 57
T 58
T 59
T 60
T 61
T 62
T 63
T 64
T 65
T 66
T 67
T 68
T 69
T 70
T 71
T 72
T 73
T 74
T 75
T 76
T 77
T 78
T 79
T 80
END
SECTION Cost
26318
END
